c 82_4_checker.cnf
c
c field = 82
c formula set type = 4_checker
c
p cnf 5 80
154 
156 
158 
160 
-152 
155 
157 
159 
161 
-153 
154 
156 
158 
160 
-164 
155 
157 
159 
161 
-165 
156 
158 
160 
164 
-154 
157 
159 
161 
165 
-155 
156 
158 
160 
164 
-166 
157 
159 
161 
165 
-167 
158 
160 
164 
166 
-156 
159 
161 
165 
167 
-157 
158 
160 
164 
166 
-168 
159 
161 
165 
167 
-169 
160 
164 
166 
168 
-158 
161 
165 
167 
169 
-159 
160 
164 
166 
168 
-170 
161 
165 
167 
169 
-171 
164 
166 
168 
170 
-160 
165 
167 
169 
171 
-161 
164 
166 
168 
170 
-172 
165 
167 
169 
171 
-173 
42 
72 
102 
132 
-12 
43 
73 
103 
133 
-13 
42 
72 
102 
132 
-192 
43 
73 
103 
133 
-193 
72 
102 
132 
192 
-42 
73 
103 
133 
193 
-43 
72 
102 
132 
192 
-222 
73 
103 
133 
193 
-223 
102 
132 
192 
222 
-72 
103 
133 
193 
223 
-73 
102 
132 
192 
222 
-252 
103 
133 
193 
223 
-253 
132 
192 
222 
252 
-102 
133 
193 
223 
253 
-103 
132 
192 
222 
252 
-282 
133 
193 
223 
253 
-283 
192 
222 
252 
282 
-132 
193 
223 
253 
283 
-133 
192 
222 
252 
282 
-312 
193 
223 
253 
283 
-313 
34 
66 
98 
130 
-2 
35 
67 
99 
131 
-3 
34 
66 
98 
130 
-194 
35 
67 
99 
131 
-195 
66 
98 
130 
194 
-34 
67 
99 
131 
195 
-35 
66 
98 
130 
194 
-226 
67 
99 
131 
195 
-227 
98 
130 
194 
226 
-66 
99 
131 
195 
227 
-67 
98 
130 
194 
226 
-258 
99 
131 
195 
227 
-259 
130 
194 
226 
258 
-98 
131 
195 
227 
259 
-99 
130 
194 
226 
258 
-290 
131 
195 
227 
259 
-291 
194 
226 
258 
290 
-130 
195 
227 
259 
291 
-131 
194 
226 
258 
290 
-322 
195 
227 
259 
291 
-323 
50 
78 
106 
134 
-22 
51 
79 
107 
135 
-23 
50 
78 
106 
134 
-190 
51 
79 
107 
135 
-191 
78 
106 
134 
190 
-50 
79 
107 
135 
191 
-51 
78 
106 
134 
190 
-218 
79 
107 
135 
191 
-219 
106 
134 
190 
218 
-78 
107 
135 
191 
219 
-79 
106 
134 
190 
218 
-246 
107 
135 
191 
219 
-247 
134 
190 
218 
246 
-106 
135 
191 
219 
247 
-107 
134 
190 
218 
246 
-274 
135 
191 
219 
247 
-275 
190 
218 
246 
274 
-134 
191 
219 
247 
275 
-135 
190 
218 
246 
274 
-302 
191 
219 
247 
275 
-303 
